/* Problème 2.2 INITIAL */

/* Objective function */
min: +b;

/* Constraints */
+x1 +x2 = 1;
-0.166690957188 x1 +0.761183702006 x2 <= 0.168730061242;
+x1 +x2 = 1;
+0.922606326296 x1 +0.308010070388 x2 <= 0.211727231253;
